(set-logic QF_UF)
(declare-fun A0 () Bool)
(declare-fun A1 () Bool)
(declare-fun A2 () Bool)
(declare-fun A3 () Bool)
(declare-fun A4 () Bool)
(declare-fun A5 () Bool)
(declare-fun A6 () Bool)
(declare-fun A7 () Bool)
(declare-fun A8 () Bool)
(declare-fun A9 () Bool)
(declare-fun A10 () Bool)
(declare-fun A11 () Bool)
(declare-fun A13 () Bool)
(declare-fun A15 () Bool)
(declare-fun A16 () Bool)
(declare-fun A17 () Bool)
(declare-fun A18 () Bool)
(declare-fun A19 () Bool)
(declare-fun A20 () Bool)
(declare-fun A21 () Bool)
(declare-fun A22 () Bool)
(declare-fun A23 () Bool)
(declare-fun A24 () Bool)
(declare-fun A25 () Bool)
(declare-fun A26 () Bool)
(declare-fun A27 () Bool)
(declare-fun A28 () Bool)
(declare-fun A29 () Bool)
(assert (let ((.def_0 (and A11 A28))) (let ((.def_1 (not .def_0))) (let ((.def_2 (not A2))) (let ((.def_3 (and .def_2 A22))) (let ((.def_4 (not .def_3))) (let ((.def_5 (= .def_4 .def_1))) (let ((.def_6 (= A7 A15))) (let ((.def_7 (not A4))) (let ((.def_8 (and A27 .def_7))) (let ((.def_9 (and .def_8 .def_6))) (let ((.def_10 (and .def_9 .def_5))) (let ((.def_11 (not A20))) (let ((.def_12 (or A15 .def_11))) (let ((.def_13 (not .def_12))) (let ((.def_14 (not A21))) (let ((.def_15 (= .def_2 .def_14))) (let ((.def_16 (not .def_15))) (let ((.def_17 (and .def_16 .def_13))) (let ((.def_18 (not .def_17))) (let ((.def_19 (and A22 A19))) (let ((.def_20 (not A17))) (let ((.def_21 (or .def_20 A13))) (let ((.def_22 (or .def_21 .def_19))) (let ((.def_23 (and .def_22 .def_18))) (let ((.def_24 (not .def_23))) (let ((.def_25 (or .def_24 .def_10))) (let ((.def_26 (not .def_25))) (let ((.def_27 (not A10))) (let ((.def_28 (= .def_27 .def_11))) (let ((.def_29 (not A7))) (let ((.def_30 (or .def_29 A26))) (let ((.def_31 (and .def_30 .def_28))) (let ((.def_32 (and A11 A7))) (let ((.def_33 (not .def_32))) (let ((.def_34 (not A9))) (let ((.def_35 (or .def_34 A26))) (let ((.def_36 (and .def_35 .def_33))) (let ((.def_37 (and .def_36 .def_31))) (let ((.def_38 (not .def_37))) (let ((.def_39 (or A23 A1))) (let ((.def_40 (not .def_39))) (let ((.def_41 (or A24 A8))) (let ((.def_42 (and .def_41 .def_40))) (let ((.def_43 (not A16))) (let ((.def_44 (and A6 .def_43))) (let ((.def_45 (and A24 A4))) (let ((.def_46 (or .def_45 .def_44))) (let ((.def_47 (or .def_46 .def_42))) (let ((.def_48 (not .def_47))) (let ((.def_49 (or .def_48 .def_38))) (let ((.def_50 (not .def_49))) (let ((.def_51 (= .def_50 .def_26))) (let ((.def_52 (not A0))) (let ((.def_53 (and .def_52 .def_52))) (let ((.def_54 (not .def_53))) (let ((.def_55 (not A25))) (let ((.def_56 (or A29 .def_55))) (let ((.def_57 (= .def_56 .def_54))) (let ((.def_58 (not .def_57))) (let ((.def_59 (not A1))) (let ((.def_60 (or .def_59 A1))) (let ((.def_61 (and .def_59 A16))) (let ((.def_62 (not .def_61))) (let ((.def_63 (and .def_62 .def_60))) (let ((.def_64 (or .def_63 .def_58))) (let ((.def_65 (or .def_2 A13))) (let ((.def_66 (not A5))) (let ((.def_67 (or A25 .def_66))) (let ((.def_68 (= .def_67 .def_65))) (let ((.def_69 (not .def_68))) (let ((.def_70 (and A6 .def_27))) (let ((.def_71 (not A24))) (let ((.def_72 (not A29))) (let ((.def_73 (or .def_72 .def_71))) (let ((.def_74 (not .def_73))) (let ((.def_75 (or .def_74 .def_70))) (let ((.def_76 (= .def_75 .def_69))) (let ((.def_77 (not .def_76))) (let ((.def_78 (or .def_77 .def_64))) (let ((.def_79 (not A6))) (let ((.def_80 (= A0 .def_79))) (let ((.def_81 (not .def_80))) (let ((.def_82 (not A18))) (let ((.def_83 (or .def_82 .def_52))) (let ((.def_84 (or .def_83 .def_81))) (let ((.def_85 (or A2 A20))) (let ((.def_86 (not .def_85))) (let ((.def_87 (and A7 A1))) (let ((.def_88 (or .def_87 .def_86))) (let ((.def_89 (= .def_88 .def_84))) (let ((.def_90 (not .def_89))) (let ((.def_91 (and A27 .def_66))) (let ((.def_92 (not A26))) (let ((.def_93 (and A29 .def_92))) (let ((.def_94 (not .def_93))) (let ((.def_95 (and .def_94 .def_91))) (let ((.def_96 (not A22))) (let ((.def_97 (and .def_96 A22))) (let ((.def_98 (not .def_97))) (let ((.def_99 (not A3))) (let ((.def_100 (and .def_99 .def_2))) (let ((.def_101 (or .def_100 .def_98))) (let ((.def_102 (or .def_101 .def_95))) (let ((.def_103 (not .def_102))) (let ((.def_104 (or .def_103 .def_90))) (let ((.def_105 (or .def_104 .def_78))) (let ((.def_106 (not .def_105))) (let ((.def_107 (and .def_106 .def_51))) (let ((.def_108 (not .def_107))) .def_108))))))))))))))))))))))))))))))))))))))))))))))))))))))))))))))))))))))))))))))))))))))))))))))))))))))))))))))
(check-sat)
